(declare-fun c () Int)
(declare-fun d () Int)
(declare-fun aa () Int)
(declare-fun e () Int)
(declare-fun f () Int)
(declare-fun b () Int)
(declare-fun g () Int)
(declare-fun h () Int)
(declare-fun i () Int)
(declare-fun j () Int)
(declare-fun k () Int)
(declare-fun l () Int)
(declare-fun m () Int)
(declare-fun n () Int)
(declare-fun o () Int)
(declare-fun p () Int)
(declare-fun q () Int)
(declare-fun r () Int)
(declare-fun s () Int)
(declare-fun a () Int)
(declare-fun t () Int)
(declare-fun u () Int)
(declare-fun v () Int)
(declare-fun w () Int)
(declare-fun x () Int)
(declare-fun y () Int)
(declare-fun z () Int)
(declare-fun ad () Int)
(declare-fun ae () Int)
(declare-fun af () Int)
(declare-fun ag () Int)
(declare-fun ah () Int)
(declare-fun ai () Int)
(assert (distinct ai ah ag af ae ad z y x w v u t a s r q p o n m l k j i h g b f e aa d c))
(check-sat)
